9 9
2 489 144 248 1 113 1 1 1
15 30 2 6 1 134 309 171 332
1 246 1 1 550 198 1 1 1
22 209 1 1 431 49 79 205 3
1 20 127 637 5 18 1 190 1
52 1 1 43 1 450 1 428 23
170 1 10 1 5 35 602 1 175
366 3 139 22 2 2 1 2 463
371 1 575 41 4 1 5 1 1
